NAME : portcgen-23-10
COMMENT : portcgen N=23, seed=10
TYPE : TSP
DIMENSION : 23
EDGE_WEIGHT_TYPE : EUC_2D
NODE_COORD_SECTION
1 -198105 330647
2 216998 145834
3 88413 88973
4 264188 -97009
5 13983 -58000
6 -40533 -9390
7 214881 48286
8 81476 93046
9 -324442 14383
10 -217819 207749
11 56545 -242483
12 -60340 72731
13 -238741 -203937
14 -133530 214053
15 106139 -79113
16 -252561 -129643
17 293597 26218
18 28169 -339654
19 -126061 -147260
20 30353 660550
21 -82654 33350
22 -73238 -165228
23 -253554 16103
